************************************************************************
file with basedata            : md377_.bas
initial value random generator: 1669666912
************************************************************************
projects                      :  1
jobs (incl. supersource/sink ):  22
horizon                       :  145
RESOURCES
  - renewable                 :  2   R
  - nonrenewable              :  2   N
  - doubly constrained        :  0   D
************************************************************************
PROJECT INFORMATION:
pronr.  #jobs rel.date duedate tardcost  MPM-Time
    1     20      0       19        0       19
************************************************************************
PRECEDENCE RELATIONS:
jobnr.    #modes  #successors   successors
   1        1          3           2   3   4
   2        3          1           7
   3        3          3          11  12  17
   4        3          3           5   6  13
   5        3          1          14
   6        3          1          17
   7        3          3           8   9  10
   8        3          3          16  18  20
   9        3          3          12  13  17
  10        3          2          15  19
  11        3          3          14  15  16
  12        3          2          20  21
  13        3          2          14  15
  14        3          1          21
  15        3          2          18  20
  16        3          1          19
  17        3          2          18  19
  18        3          1          21
  19        3          1          22
  20        3          1          22
  21        3          1          22
  22        1          0        
************************************************************************
REQUESTS/DURATIONS:
jobnr. mode duration  R 1  R 2  N 1  N 2
------------------------------------------------------------------------
  1      1     0       0    0    0    0
  2      1     3      10    0    3    7
         2     3       0    2    4    7
         3     5       9    0    3    7
  3      1     1       0    5    3    2
         2     5       0    5    2    2
         3    10       8    0    2    2
  4      1     1       6    0    3    9
         2     7       5    0    3    6
         3     8       4    0    2    3
  5      1     4       0    4    6    9
         2     8       2    0    6    6
         3     9       1    0    6    5
  6      1     2       4    0    7    9
         2    10       3    0    7    6
         3    10       0    7    7    4
  7      1     5       6    0    5    4
         2     6       0    8    5    3
         3     6       3    0    4    2
  8      1     1       9    0    8   10
         2     3       0    9    7    5
         3     5       0    6    6    2
  9      1     1       6    0    7    9
         2     3       0    6    5    8
         3     8       1    0    3    7
 10      1     2       6    0    7    8
         2     3       0    7    4    6
         3     3       5    0    4    7
 11      1     7       5    0    9    7
         2     8       5    0    6    6
         3     9       5    0    5    4
 12      1     1       0    8    5    7
         2     1       8    0    6    7
         3     4       0    8    1    5
 13      1     2       4    0    6    7
         2     5       3    0    4    6
         3     9       0    2    4    4
 14      1     1       6    0    5    8
         2     2       3    0    4    8
         3     6       0    4    3    7
 15      1     2       8    0    9    6
         2     8       0    2    8    4
         3     8       8    0    6    2
 16      1     3       8    0    9    9
         2     5       7    0    6    8
         3     7       3    0    4    6
 17      1     5       0    7    5    5
         2     6       5    0    5    3
         3     7       0    5    5    1
 18      1     1      10    0    7    4
         2     5       9    0    5    4
         3     9       9    0    2    3
 19      1     4       9    0   10    5
         2     5       0    8    9    5
         3     8       0    8    9    4
 20      1     2       4    0    2    6
         2     5       0    4    2    4
         3     6       0    3    1    2
 21      1     4       0    3    5    7
         2     6       0    3    4    4
         3     8       4    0    3    3
 22      1     0       0    0    0    0
************************************************************************
RESOURCEAVAILABILITIES:
  R 1  R 2  N 1  N 2
   15    7  123  138
************************************************************************
MAXIMAL LAGS:
from  to  type  delay
    1   22   ES      0
    1    2   ES      0
    2   22   ES      0
    1    3   ES      0
    3   22   ES      0
    1    4   ES      0
    4   22   ES      0
    1    5   ES      0
    5   22   ES      0
    1    6   ES      0
    6   22   ES      0
    1    7   ES      0
    7   22   ES      0
    1    8   ES      0
    8   22   ES      0
    1    9   ES      0
    9   22   ES      0
    1   10   ES      0
   10   22   ES      0
    1   11   ES      0
   11   22   ES      0
    1   12   ES      0
   12   22   ES      0
    1   13   ES      0
   13   22   ES      0
    1   14   ES      0
   14   22   ES      0
    1   15   ES      0
   15   22   ES      0
    1   16   ES      0
   16   22   ES      0
    1   17   ES      0
   17   22   ES      0
    1   18   ES      0
   18   22   ES      0
    1   19   ES      0
   19   22   ES      0
    1   20   ES      0
   20   22   ES      0
    1   21   ES      0
   21   22   ES      0
    1   22   ES      0
    2    7   SS    -12
    2    7   SE    -12
    2    7   ES     -5
    2    7   EE      6
    3   11   SS     -4
    3   11   SE     12
    3   11   ES      8
    3   11   EE     -1
    3   12   SS     -1
    3   12   SE      4
    3   12   ES     10
    3   12   EE      9
    3   17   SS     11
    3   17   SE     10
    3   17   ES     -3
    3   17   EE      0
    4    5   SS     11
    4    5   SE     -3
    4    5   ES      8
    4    5   EE     -7
    4    6   SS    -11
    4    6   SE     -9
    4    6   ES      4
    4    6   EE     -9
    4   13   SS     12
    4   13   SE      8
    4   13   ES      7
    4   13   EE    -12
    5   14   SS     -8
    5   14   SE     -6
    5   14   ES     -7
    5   14   EE    -12
    6   17   SS     -9
    6   17   SE      0
    6   17   ES     -1
    6   17   EE     -9
    7    8   SS      7
    7    8   SE      4
    7    8   ES      5
    7    8   EE      7
    7    9   SS    -12
    7    9   SE      0
    7    9   ES     11
    7    9   EE    -12
    7   10   SS      7
    7   10   SE     -9
    7   10   ES      3
    7   10   EE     12
    8   16   SS     -1
    8   16   SE    -11
    8   16   ES      2
    8   16   EE     -2
    8   18   SS     -9
    8   18   SE     11
    8   18   ES      6
    8   18   EE     -7
    8   20   SS      0
    8   20   SE      2
    8   20   ES      3
    8   20   EE      8
    9   12   SS     -1
    9   12   SE    -12
    9   12   ES     -4
    9   12   EE      0
    9   13   SS     -9
    9   13   SE      0
    9   13   ES      8
    9   13   EE     -7
    9   17   SS      9
    9   17   SE     -8
    9   17   ES      9
    9   17   EE      8
   10   15   SS      4
   10   15   SE      8
   10   15   ES     -3
   10   15   EE     -6
   10   19   SS     11
   10   19   SE      7
   10   19   ES      9
   10   19   EE      1
   11   14   SS     -1
   11   14   SE      1
   11   14   ES      5
   11   14   EE     11
   11   15   SS      8
   11   15   SE      5
   11   15   ES     12
   11   15   EE      8
   11   16   SS      3
   11   16   SE     -7
   11   16   ES    -12
   11   16   EE     -8
   12   20   SS    -12
   12   20   SE     -4
   12   20   ES      5
   12   20   EE      3
   12   21   SS    -10
   12   21   SE    -12
   12   21   ES     -5
   12   21   EE      0
   13   14   SS      9
   13   14   SE     -2
   13   14   ES     -5
   13   14   EE     -3
   13   15   SS      3
   13   15   SE      0
   13   15   ES     12
   13   15   EE     -3
   14   21   SS    -10
   14   21   SE     -4
   14   21   ES     -3
   14   21   EE     -8
   15   18   SS     11
   15   18   SE     10
   15   18   ES     11
   15   18   EE      3
   15   20   SS     -9
   15   20   SE      9
   15   20   ES      6
   15   20   EE      2
   16   19   SS     -3
   16   19   SE     -2
   16   19   ES     -6
   16   19   EE    -10
   17   18   SS     -3
   17   18   SE     -1
   17   18   ES      6
   17   18   EE     -1
   17   19   SS     -1
   17   19   SE    -12
   17   19   ES      5
   17   19   EE    -11
   18   21   SS    -11
   18   21   SE     -8
   18   21   ES      8
   18   21   EE      7
************************************************************************
